
******************************************************************************
This program contains Ipopt, a library for large-scale nonlinear optimization.
 Ipopt is released as open source code under the Eclipse Public License (EPL).
         For more information visit http://projects.coin-or.org/Ipopt
******************************************************************************

This is Ipopt version 3.12.6, running with linear solver ma57.

Number of nonzeros in equality constraint Jacobian...:    24220
Number of nonzeros in inequality constraint Jacobian.:        0
Number of nonzeros in Lagrangian Hessian.............:     4900

Total number of variables............................:     4900
                     variables with only lower bounds:        0
                variables with lower and upper bounds:        0
                     variables with only upper bounds:        0
Total number of equality constraints.................:     4900
Total number of inequality constraints...............:        0
        inequality constraints with only lower bounds:        0
   inequality constraints with lower and upper bounds:        0
        inequality constraints with only upper bounds:        0

iter    objective    inf_pr   inf_du lg(mu)  ||d||  lg(rg) alpha_du alpha_pr  ls
   0  0.0000000e+00 1.16e+04 0.00e+00  -1.0 0.00e+00    -  0.00e+00 0.00e+00   0
Reallocating memory for MA57: lfact (1322144)
Reallocating memory for MA57: lfact (1458821)
   1  0.0000000e+00 1.09e+04 1.43e-17  -1.0 8.61e+00    -  1.00e+00 6.25e-02h  5
   2  0.0000000e+00 6.21e+03 3.83e-17  -1.0 1.20e+00    -  1.00e+00 5.00e-01h  2
   3  0.0000000e+00 1.63e+03 1.80e-18  -1.0 3.59e-01    -  1.00e+00 1.00e+00h  1
   4  0.0000000e+00 4.20e+02 3.68e-19  -1.0 1.89e-01    -  1.00e+00 1.00e+00h  1
   5  0.0000000e+00 1.07e+02 8.89e-20  -1.0 1.00e-01    -  1.00e+00 1.00e+00h  1
   6  0.0000000e+00 2.69e+01 1.44e-20  -1.7 5.17e-02    -  1.00e+00 1.00e+00h  1
   7  0.0000000e+00 6.74e+00 1.44e-21  -2.5 2.61e-02    -  1.00e+00 1.00e+00h  1
   8  0.0000000e+00 1.69e+00 1.99e-22  -3.8 1.29e-02    -  1.00e+00 1.00e+00h  1
   9  0.0000000e+00 4.19e-01 3.81e-23  -3.8 6.13e-03    -  1.00e+00 1.00e+00h  1
iter    objective    inf_pr   inf_du lg(mu)  ||d||  lg(rg) alpha_du alpha_pr  ls
  10  0.0000000e+00 9.54e-02 4.55e-24  -5.7 2.70e-03    -  1.00e+00 1.00e+00h  1
  11  0.0000000e+00 1.22e-02 3.15e-25  -5.7 8.54e-04    -  1.00e+00 1.00e+00h  1
  12  0.0000000e+00 2.23e-04 8.80e-27  -5.7 1.07e-04    -  1.00e+00 1.00e+00h  1
  13  0.0000000e+00 6.02e-08 4.60e-30  -8.6 1.73e-06    -  1.00e+00 1.00e+00h  1

Number of Iterations....: 13

                                   (scaled)                 (unscaled)
Objective...............:   0.0000000000000000e+00    0.0000000000000000e+00
Dual infeasibility......:   0.0000000000000000e+00    0.0000000000000000e+00
Constraint violation....:   1.5141151292905503e-10    6.0213330443529894e-08
Complementarity.........:   0.0000000000000000e+00    0.0000000000000000e+00
Overall NLP error.......:   1.5141151292905503e-10    6.0213330443529894e-08


Number of objective function evaluations             = 20
Number of objective gradient evaluations             = 14
Number of equality constraint evaluations            = 21
Number of inequality constraint evaluations          = 0
Number of equality constraint Jacobian evaluations   = 14
Number of inequality constraint Jacobian evaluations = 0
Number of Lagrangian Hessian evaluations             = 13
Total CPU secs in IPOPT (w/o function evaluations)   =      1.473
Total CPU secs in NLP function evaluations           =      0.053

EXIT: Optimal Solution Found.
Note: The following floating-point exceptions are signalling: IEEE_UNDERFLOW_FLAG IEEE_DENORMAL

************************ CUTEst statistics ************************


 Package used            :  IPOPT
 Problem                 :  POROUS1   
 # variables             =            5184
 # constraints           =            4900
 # objective functions   =        0.3500000E+02
 # objective gradients   =        0.1500000E+02
 # objective Hessians    =        0.1400000E+02
 # Hessian-vector prdct  =        0.0000000E+00
 # constraints functions =        0.3700000E+02
 # constraints gradients =        0.1600000E+02
 # constraints Hessians  =        0.1400000E+02
 Exit code               =               0
 Final f                 =   0.0000000E+00
 Set up time             =            0.14 seconds
 Solve time              =            4.13 seconds


******************************************************************

System Time =       1.0329999924 s.
